benchmarks_CP/INST_36x36/45/inst36x36_45_33.dzn
S=6;
start=[|
-1,	-1,	6,	23,	5,	-1,	4,	-1,	13,	-1,	-1,	-1,	-1,	-1,	-1,	-1,	-1,	-1,	-1,	27,	-1,	-1,	-1,	24,	17,	-1,	-1,	30,	33,	-1,	22,	-1,	-1,	-1,	-1,	34|
-1,	-1,	32,	2,	11,	33,	-1,	-1,	-1,	28,	25,	-1,	35,	15,	-1,	27,	-1,	-1,	17,	-1,	-1,	23,	-1,	-1,	14,	-1,	-1,	-1,	20,	-1,	-1,	26,	-1,	13,	30,	29|
-1,	-1,	8,	-1,	14,	-1,	-1,	-1,	35,	-1,	11,	27,	-1,	26,	5,	-1,	-1,	-1,	1,	-1,	32,	36,	9,	-1,	-1,	23,	18,	4,	6,	3,	10,	19,	-1,	-1,	24,	-1|
17,	19,	4,	1,	-1,	24,	10,	32,	-1,	-1,	-1,	-1,	8,	30,	-1,	-1,	23,	-1,	-1,	-1,	29,	2,	-1,	-1,	-1,	-1,	-1,	22,	-1,	-1,	9,	-1,	5,	12,	-1,	11|
18,	9,	-1,	26,	-1,	27,	-1,	24,	-1,	-1,	7,	30,	19,	4,	-1,	25,	31,	-1,	-1,	22,	-1,	6,	-1,	21,	5,	-1,	34,	-1,	-1,	29,	23,	-1,	-1,	33,	-1,	-1|
-1,	3,	-1,	7,	28,	29,	-1,	-1,	5,	9,	-1,	23,	12,	24,	32,	-1,	-1,	-1,	-1,	19,	-1,	11,	26,	-1,	-1,	-1,	35,	1,	-1,	-1,	-1,	-1,	-1,	4,	-1,	14|
-1,	-1,	23,	5,	-1,	17,	-1,	-1,	-1,	13,	-1,	-1,	3,	-1,	-1,	31,	-1,	-1,	7,	36,	-1,	-1,	35,	-1,	34,	-1,	-1,	-1,	-1,	-1,	-1,	21,	-1,	-1,	-1,	27|
35,	-1,	26,	-1,	-1,	-1,	-1,	-1,	-1,	27,	1,	17,	18,	33,	-1,	-1,	-1,	34,	-1,	-1,	-1,	-1,	-1,	22,	-1,	-1,	36,	-1,	-1,	-1,	-1,	-1,	-1,	-1,	-1,	13|
1,	-1,	3,	-1,	12,	28,	-1,	16,	-1,	-1,	-1,	2,	11,	21,	15,	-1,	-1,	4,	-1,	10,	-1,	30,	-1,	-1,	-1,	9,	-1,	35,	19,	-1,	-1,	-1,	8,	-1,	-1,	-1|
-1,	29,	-1,	-1,	-1,	-1,	-1,	-1,	-1,	23,	-1,	-1,	17,	8,	9,	-1,	-1,	16,	28,	-1,	12,	-1,	3,	15,	-1,	6,	-1,	31,	-1,	13,	-1,	24,	-1,	30,	-1,	25|
-1,	6,	-1,	10,	34,	-1,	5,	33,	14,	-1,	3,	-1,	-1,	2,	-1,	-1,	36,	-1,	-1,	13,	18,	-1,	-1,	1,	-1,	-1,	-1,	24,	-1,	-1,	32,	-1,	12,	-1,	-1,	-1|
19,	-1,	-1,	-1,	-1,	-1,	29,	9,	-1,	20,	36,	28,	-1,	12,	35,	30,	13,	6,	2,	-1,	23,	-1,	-1,	-1,	-1,	27,	5,	-1,	-1,	14,	1,	-1,	34,	-1,	-1,	-1|
3,	1,	-1,	-1,	-1,	35,	24,	5,	-1,	-1,	26,	-1,	4,	13,	-1,	14,	-1,	-1,	-1,	17,	-1,	15,	30,	-1,	33,	2,	20,	-1,	-1,	-1,	25,	-1,	-1,	-1,	34,	-1|
13,	-1,	-1,	-1,	10,	-1,	20,	-1,	-1,	31,	-1,	-1,	24,	34,	8,	-1,	-1,	26,	-1,	33,	-1,	16,	11,	29,	18,	3,	-1,	-1,	15,	1,	-1,	-1,	-1,	28,	12,	21|
-1,	-1,	30,	-1,	6,	-1,	-1,	21,	-1,	11,	-1,	4,	-1,	18,	17,	-1,	33,	5,	8,	31,	3,	-1,	-1,	-1,	-1,	14,	10,	7,	9,	25,	26,	13,	-1,	-1,	20,	16|
7,	-1,	-1,	33,	-1,	-1,	13,	-1,	9,	2,	-1,	-1,	36,	-1,	-1,	3,	28,	23,	-1,	-1,	24,	-1,	-1,	-1,	-1,	19,	-1,	-1,	31,	17,	-1,	-1,	18,	1,	14,	10|
34,	17,	20,	-1,	16,	-1,	27,	23,	-1,	-1,	-1,	-1,	-1,	9,	-1,	-1,	22,	-1,	35,	-1,	26,	10,	1,	2,	4,	-1,	-1,	13,	30,	-1,	31,	7,	19,	-1,	-1,	-1|
29,	-1,	-1,	-1,	-1,	-1,	-1,	-1,	-1,	-1,	12,	1,	30,	20,	-1,	-1,	-1,	-1,	-1,	6,	-1,	5,	-1,	-1,	22,	-1,	27,	-1,	-1,	-1,	-1,	33,	-1,	8,	2,	17|
-1,	7,	-1,	29,	32,	-1,	30,	-1,	-1,	21,	10,	-1,	-1,	17,	-1,	-1,	3,	36,	-1,	-1,	1,	20,	28,	6,	-1,	15,	-1,	33,	5,	-1,	-1,	18,	23,	9,	13,	4|
-1,	23,	-1,	6,	21,	-1,	-1,	-1,	-1,	7,	28,	-1,	31,	-1,	-1,	-1,	-1,	30,	-1,	-1,	-1,	-1,	-1,	-1,	-1,	34,	-1,	-1,	10,	-1,	-1,	8,	36,	16,	-1,	-1|
8,	-1,	22,	-1,	-1,	-1,	23,	34,	32,	36,	-1,	-1,	-1,	-1,	-1,	35,	9,	1,	24,	7,	-1,	18,	-1,	-1,	-1,	-1,	-1,	29,	4,	-1,	-1,	-1,	-1,	-1,	-1,	-1|
-1,	-1,	28,	15,	-1,	12,	33,	4,	6,	-1,	-1,	20,	29,	7,	26,	-1,	-1,	-1,	-1,	-1,	36,	9,	2,	-1,	-1,	8,	-1,	23,	-1,	30,	-1,	10,	14,	-1,	1,	-1|
-1,	-1,	-1,	16,	25,	-1,	15,	-1,	12,	-1,	-1,	-1,	-1,	-1,	-1,	-1,	-1,	19,	-1,	-1,	-1,	4,	32,	-1,	-1,	-1,	-1,	-1,	17,	-1,	5,	27,	-1,	-1,	35,	20|
36,	30,	34,	-1,	-1,	-1,	-1,	-1,	-1,	24,	-1,	9,	21,	-1,	-1,	-1,	-1,	15,	16,	-1,	17,	13,	-1,	23,	12,	1,	-1,	-1,	-1,	2,	28,	-1,	7,	29,	3,	-1|
23,	32,	25,	-1,	-1,	1,	-1,	8,	31,	-1,	4,	21,	-1,	3,	16,	-1,	10,	-1,	-1,	5,	-1,	-1,	15,	-1,	-1,	-1,	33,	-1,	-1,	9,	-1,	-1,	-1,	-1,	-1,	-1|
-1,	-1,	15,	30,	8,	-1,	2,	26,	22,	6,	-1,	-1,	-1,	-1,	-1,	18,	21,	27,	-1,	35,	-1,	3,	-1,	-1,	1,	-1,	-1,	14,	34,	10,	36,	-1,	33,	-1,	-1,	19|
-1,	13,	17,	4,	-1,	-1,	-1,	-1,	3,	34,	-1,	-1,	32,	-1,	-1,	11,	-1,	-1,	14,	-1,	33,	28,	10,	16,	-1,	-1,	-1,	18,	-1,	20,	-1,	-1,	-1,	15,	-1,	-1|
26,	22,	29,	14,	3,	-1,	-1,	15,	-1,	5,	16,	-1,	-1,	19,	13,	-1,	24,	9,	-1,	-1,	-1,	-1,	-1,	-1,	-1,	-1,	-1,	28,	-1,	35,	30,	34,	-1,	-1,	-1,	-1|
-1,	-1,	-1,	-1,	-1,	19,	-1,	25,	-1,	-1,	-1,	12,	20,	-1,	-1,	36,	15,	-1,	26,	-1,	22,	-1,	18,	4,	23,	-1,	2,	3,	32,	11,	21,	-1,	-1,	-1,	-1,	24|
-1,	27,	-1,	-1,	-1,	6,	-1,	36,	-1,	-1,	-1,	-1,	34,	-1,	2,	-1,	-1,	-1,	21,	23,	-1,	29,	24,	8,	-1,	31,	-1,	16,	-1,	5,	11,	-1,	-1,	14,	22,	-1|
-1,	-1,	33,	24,	-1,	5,	36,	-1,	-1,	-1,	19,	-1,	27,	25,	3,	-1,	-1,	21,	30,	32,	15,	-1,	14,	-1,	-1,	28,	-1,	-1,	-1,	-1,	34,	-1,	-1,	-1,	-1,	18|
14,	-1,	19,	-1,	-1,	-1,	-1,	35,	20,	18,	24,	11,	10,	-1,	-1,	-1,	34,	-1,	36,	-1,	-1,	25,	-1,	-1,	-1,	33,	3,	-1,	-1,	22,	-1,	15,	2,	5,	31,	12|
-1,	26,	36,	-1,	23,	-1,	-1,	-1,	-1,	-1,	17,	22,	-1,	-1,	-1,	-1,	12,	33,	31,	3,	35,	-1,	-1,	-1,	10,	-1,	-1,	-1,	-1,	15,	-1,	-1,	-1,	-1,	-1,	1|
28,	-1,	12,	-1,	-1,	-1,	-1,	-1,	1,	-1,	29,	-1,	9,	-1,	-1,	-1,	35,	-1,	-1,	2,	-1,	7,	-1,	34,	-1,	16,	-1,	-1,	14,	-1,	3,	-1,	10,	6,	4,	33|
-1,	34,	10,	22,	9,	-1,	-1,	14,	15,	-1,	-1,	7,	-1,	-1,	36,	-1,	-1,	-1,	19,	-1,	-1,	-1,	-1,	-1,	-1,	-1,	-1,	-1,	-1,	4,	-1,	17,	-1,	-1,	-1,	28|
-1,	16,	27,	-1,	-1,	-1,	34,	-1,	-1,	33,	9,	-1,	15,	-1,	19,	-1,	20,	-1,	-1,	-1,	5,	-1,	8,	26,	-1,	11,	13,	-1,	-1,	31,	35,	-1,	-1,	23,	21,	30|];
